p cnf 73 111                
-2 -1 -10 0
10 -14 0
-1 11 0
-2 11 0
1 2 -11 0
-11 -3 -12 0
12 -14 0
3 11 -13 0
13 -14 0
14 -25 0
-5 -4 -15 0
15 -19 0
-4 16 0
-5 16 0
4 5 -16 0
-16 -6 -17 0
17 -19 0
6 16 -18 0
18 -19 0
19 -25 0
-8 -7 -20 0
20 -24 0
-7 21 0
-8 21 0
7 8 -21 0
-21 -9 -22 0
22 -24 0
9 21 -23 0
23 -24 0
24 -25 0
25 -41 0
-3 -26 0
-2 -26 0
3 2 26 0
26 -29 0
-6 -27 0
-4 -27 0
6 4 27 0
27 -29 0
-8 -28 0
-7 -28 0
8 7 28 0
28 -29 0
29 -37 0
-3 -30 0
-1 -30 0
-2 -31 0
-1 -31 0
-6 -32 0
-5 -32 0
-5 -33 0
-4 -33 0
-9 -34 0
-8 -34 0
-9 -35 0
-7 -35 0
-28 -27 -26 30 31 32 33 34 35 -36 0
36 -37 0
29 -39 0
-9 -5 -1 2 3 4 6 7 8 -38 0
38 -39 0
37 39 -40 0
40 -41 0
-1 5 -42 0
42 -56 0
-1 -5 43 0
1 5 43 0
-5 5 43 0
-2 4 -44 0
-43 44 -45 0
45 -56 0
-2 -4 46 0
2 4 46 0
-4 4 46 0
-43 -46 47 0
-3 6 -48 0
-47 48 -49 0
49 -56 0
-3 -6 50 0
3 6 50 0
-6 6 50 0
-47 -50 51 0
-7 8 -52 0
-51 52 -53 0
53 -56 0
56 -72 0
-2 3 -57 0
57 -71 0
-2 -3 58 0
2 3 58 0
-3 3 58 0
-4 7 -59 0
-58 59 -60 0
60 -71 0
-4 -7 61 0
4 7 61 0
-7 7 61 0
-58 -61 62 0
-5 9 -63 0
-62 63 -64 0
64 -71 0
-5 -9 65 0
5 9 65 0
-9 9 65 0
-62 -65 66 0
-6 8 -67 0
-66 67 -68 0
68 -71 0
71 -72 0
41 0
72 0
